c Lingeling SAT Solver
c 
c Version ala b02aa1a04343558c4252b5f4a723be021964f652
c 
c Copyright (C) 2010-2012 Armin Biere JKU Linz Austria.
c All rights reserved.
c 
c released Sat Oct 13 14:05:26 CEST 2012
c compiled Sat Feb 16 02:48:12 EST 2013
c 
c gcc (Debian 4.4.5-8) 4.4.5
c -Wall -O3 -DNLGLOG -DNDEBUG -DNCHKSOL -DNLGLPICOSAT 
c Linux greencar2 2.6.32-5-amd64 x86_64
c 
c reading input file pb_200_07.cnf
c no embedded options
c found 'p cnf 195626 603248' header
c read 195626 variables, 603248 clauses, 1254218 literals in 0.0 seconds
c
c feature vars 195626
c feature lits.total 1254218
c feature lits.pos 669502
c feature lits.neg 584716
c feature clauses.total 603248
c feature clauses.unit 73924
c feature clauses.bin 425278
c feature clauses.trn 102646
c feature clauses.lrg 1400
c feature cog.val.min 1
c feature cog.val.avg 87116
c feature cog.val.max 187650
c feature cog.var.min 1
c feature cog.var.avg 97814
c feature cog.var.max 195625
c
c
c --abstime=0
c --acts=2
c --actavgmax=120
c --actstdmin=20
c --actstdmax=80
c --agile=23
c --bias=2
c --block=1
c --blkrtc=0
c --blkclslim=2000
c --blkocclim=2000
c --blkmaxeff=2147483647
c --blkmineff=10000000
c --blkreleff=20
c --card=0
c --cce=3
c --ccemaxeff=100000000
c --ccemineff=5000000
c --ccereleff=3
c --check=0
c --cgrclsr=1
c --cgrmaxority=20
c --cgrmaxeff=8000000
c --cgrmineff=200000
c --cgreleff=1
c --cgrexteq=1
c --cgrextand=1
c --cgrextunits=1
c --cgrextite=1
c --cgrextxor=1
c --cliff=1
c --cliffreleff=8
c --cliffmineff=10000000
c --cliffmaxeff=100000000
c --compact=0
c --decompose=1
c --defragint=10000000
c --defragfree=50
c --elim=1
c --elmrtc=0
c --elmblk=1
c --elmclslim=1000
c --elmocclim=1000
c --elmaxeff=100000000
c --elmineff=5000000
c --elmreleff=10
c --sleeponabort=0
c --exitonabort=0
c --flipping=1
c --flipint=2
c --flipdur=50
c --fliptop=1
c --force=0
c --gauss=1
c --gaussextrall=1
c --gaussmaxor=20
c --gaussexptrn=1
c --gaussmaxeff=50000000
c --gaussmineff=2000000
c --gaussreleff=2
c --gluescale=2
c --gluekeep=0
c --inprocessing=1
c --cintinc=10000
c --irrlim=20
c --lift=1
c --lftmaxeff=20000000
c --lftmineff=500000
c --lftreleff=6
c --lhbr=1
c --lkhd=1
c --clim=-1
c --mocint=1000
c --move=2
c --log=-1
c --otfs=1
c --phase=0
c --phaseneginit=0
c --plain=0
c --probe=1
c --prbasicmaxeff=100000000
c --prbasicmineff=1000000
c --prbasicreleff=10
c --prbasic=1
c --prbasicroundlim=9
c --queuemergelim=10000
c --queuefactor=833
c --queueinc=20
c --rmincpen=4
c --seed=0
c --smallirr=90
c --smallve=1
c --smallvevars=12
c --randec=1
c --randecint=1000
c --redfixed=0
c --redlbound=0
c --redlexpfac=10
c --redldoutfac=0
c --redloutinc=10000
c --redlinit=1000
c --redlinc=1000
c --redinoutinc=100
c --redlmininc=10
c --redlmaxinc=200
c --redlminrel=10
c --redlmaxrel=300
c --redlminabs=500
c --redlmaxabs=1000000
c --reduce=1
c --restart=2
c --restartint=5
c --rstinoutinc=110
c --simplify=1
c --simpdelay=100
c --simpen=4
c --sizepen=1000000
c --sizemaxpen=3
c --sortlits=0
c --syncint=111111
c --termint=122222
c --ternres=1
c --ternresrtc=0
c --trnrmineff=4000000
c --trnrmaxeff=40000000
c --trnreleff=10
c --transred=1
c --trdmineff=100000
c --trdmaxeff=2000000
c --trdreleff=10
c --unhide=1
c --unhdextstamp=1
c --unhdhbr=0
c --unhdmaxeff=20000000
c --unhdmineff=1000000
c --unhdreleff=4
c --unhdlnpr=3
c --unhdroundlim=5
c --verbose=1
c --witness=1
c [limits] no conflict limit
c [limits] simplification delayed by 100 to 100 conflicts
c 
c  seconds         irredundant          redundant clauses agility   height
c          variables clauses conflicts large binary ternary    glue         MB
c 
c *    0.0  105646   441080         0       0      0     0  59  0.0   0.0   40
c [cut-width] 146763, max 231698, min4 92192 at 75%, min10 31151 at 89%
c [decision-order] bias 1, old 1
c [queue-schedule-all-variables]
c s    0.0  105646   441080         0       0      0     0  59  0.0   0.0   40
c [simplification-1] limit hit at 101 conflicts
c [simplification-1] simplification penalty of 4
c [ternres-1] limit 4000000 with penalty 0 = 0 + 0
c [ternres-1] all 105646 free variables schedulable
c [ternres-1] 2 ternary resolvents (0 bin, 2 trn)
c [ternres-1] fully completed ternary resolution
c T    0.1  105646   441080       101      99      1     3  47  5.5  84.9   43
c [gauss-1] limit 2000000 penalty 0 = 0 + 0
c [gauss-1] extracted 170258 xors of average arity 2.0
c [gauss-1] connected 340517 occurrences of 91426 variables (average 3.7)
c [gauss-1] limit 2000000 penalty 0 = 0 + 0
c d    0.8   48267   217489       101      99      1     3  47  5.5  84.9   19
c [gauss-1] exported 0 unary, 1 binary and 0 ternary equations
c G    0.8   48267   217489       101      99      1     3  47  5.5  84.9   19
c [basicprobe-1] limit 1000000 penalty 0 = 0 + 0
c [basicprobe-1-0] 3862 probes remain 8% after last round
c [basicprobe-1-0] 2 units = 2 failed (100%) + 0 lifted (0%)
c [basicprobe-1-0] removed 2 variables, found 4890 hbrs
c p    0.9   48265   217489       101      99   4887     3  47  5.5  84.9   23
c [cgrclsr-1] limit 200000 penalty 0 = 0 + 0
c [cgrclsr-1] all 48265 free variables schedulable
c [cgrclsr-1] fully completed congruence closure
c [lift-1] limit 500000 with penalty 0 = 0 + 0
c [lift-1] using 48265 probes 100%
c [lift-1] 48218 variables remain 100% (47 retained)
c [cliff-1] limit of 10000000 steps penalty 0 = 0 + 0
c [cliff-1] failed 2, lifted 12
c K    1.4   48239   217479       101      99  11981     3  47  5.5  84.9   23
c [unhide-1] limit 1000000 with penalty 0 = 0 + 0
c [unhide-1-1] 0 units, 5 failed, 17882 tauts, 0 hbrs, 79 literals
c u    1.6   48235   199468       101      99  11957     3  47  5.5  84.9   23
c [transred-1] limit 100000 with penalty 0 = 0 + 0
c t    1.6   48235   199468       101      99  11956     3  47  5.5  84.9   23
c [block-1] scheduling all variables this time
c [block-1] scheduled 48235 variables 100%
c [block-1] limit of 10000000 steps penalty 0 = 0 + 0
c [block-1] fully completed blocked clause elimination
c [block-1] transition to [ all 0 rem 0 ] state
c [block-1] eliminated 4200 blocked clauses
c k    1.7   48235   195248       101      99  11956  4203  47  5.5  84.9   19
c [cce-1] scheduling all variables this time
c [cce-1] limit of 10000000 steps penalty 0 = 0 + 0
c [cce-1] incomplete covered clause elimination 43242 not tried 90%
c [cce-1] transition to [ all 1 rem 1 ] state
c [cce-1] eliminated 479 covered clauses
c E    2.1   48141   194769       101      99  18083  4203  47  5.5  84.9   19
c [elim-1] scheduling all variables this time
c [elim-1] scheduled 48141 variables 100%
c [elim-1] limit of 5000000 steps penalty 0 = 0 + 0
c [elim-1] incomplete variable elimination 33750 not tried 70%
c [elim-1] transition to [ all 1 rem 1 ] state
c [elim-1] eliminated 6259 = 13% variables out of 48141
c e    3.1   41882   190817       101      54   5383   553  47  5.5  84.9   19
c [phase-1] phase bias: 3077 positive 14%, 19018 negative 86%
c [simplification-1] removed 63764 variables 60%
c [simplification-1] limit increments divided by 31
c [simplification-1] arithmetic increase of conflict limit interval by 322
c [simplification-1] new irredundant limit 1944296
c [simplification-1] new conflict limit 423
c [simplification-1] simplification penalty reduced to 3
c R    3.2   41882   190817       411     302   5400   592  13  4.6  74.0   23
c [simplification-2] limit hit at 423 conflicts
c [simplification-2] simplification penalty of 3
c [ternres-2] limit 4000000 with penalty 0 = 0 + 0
c [ternres-2] all 41882 free variables schedulable
c [ternres-2] 43 ternary resolvents (0 bin, 43 trn)
c [ternres-2] fully completed ternary resolution
c T    3.2   41882   190817       423     311   5400   638  12  4.5  71.7   23
c [gauss-2] limit 2000000 penalty 0 = 0 + 0
c [gauss-2] extracted 1066 xors of average arity 3.0
c [gauss-2] connected 3198 occurrences of 1411 variables (average 2.3)
c [gauss-2] limit 2000000 penalty 0 = 0 + 0
c [gauss-2] fully completed
c [gauss-2] exported 0 unary, 0 binary and 0 ternary equations
c G    3.4   41882   190817       423     311   5400   638  12  4.5  71.7   19
c [basicprobe-2] limit 1000000 penalty 0 = 0 + 0
c [basicprobe-2-0] 3738 probes remain 9% after last round
c [basicprobe-2-0] 2 units = 2 failed (100%) + 0 lifted (0%)
c [basicprobe-2-0] removed 2 variables, found 1205 hbrs
c p    3.5   41880   190817       423     311   6605   633  12  4.5  71.7   23
c [cgrclsr-2] limit 100000 penalty 1 = 1 + 0
c [cgrclsr-2] all 41880 free variables schedulable
c [cgrclsr-2] fully completed congruence closure
c [lift-2] limit 250000 with penalty 1 = 1 + 0
c [lift-2] using 41840 probes 100%
c [lift-2] 41816 variables remain 100% (64 retained)
c [cliff-2] limit of 10000000 steps penalty 0 = 0 + 0
c [cliff-2] failed 0, lifted 0
c [unhide-2] limit 1000000 with penalty 0 = 0 + 0
c [unhide-2-3] 0 units, 0 failed, 3031 tauts, 0 hbrs, 253 literals
c u    4.2   41880   189635       423     306   5153   621  12  4.5  71.7   23
c [transred-3] limit 100000 with penalty 0 = 0 + 0
c t    4.2   41880   189634       423     306   5151   621  12  4.5  71.7   23
c [block-2] scheduling all variables this time
c [block-2] scheduled 41880 variables 100%
c [block-2] limit of 10000000 steps penalty 0 = 0 + 0
c [block-2] fully completed blocked clause elimination
c [block-2] transition to [ all 0 rem 0 ] state
c [block-2] eliminated 0 blocked clauses
c [cce-2] 39359 variables 94% will be scheduled this time
c [cce-2] limit of 10000000 steps penalty 0 = 0 + 0
c [cce-2] 38731 variables 92% remain to be tried next time
c [cce-2] transition to [ all 0 rem 1 ] state
c [cce-2] eliminated 368 covered clauses
c E    4.6   41880   189266       423     306   6132   621  12  4.5  71.7   19
c [elim-2] 33649 variables 80% will be scheduled this time
c [elim-2] scheduled 33649 variables 80%
c [elim-2] limit of 5000000 steps penalty 0 = 0 + 0
c [elim-2] 23951 variables 57% remain to be tried next time
c [elim-2] transition to [ all 0 rem 1 ] state
c [elim-2] eliminated 967 = 2% variables out of 41880
c e    5.6   40913   188954       423     296   3365   618  12  4.5  71.7   19
c [phase-2] phase bias: 64 positive 85%, 11 negative 15%
c [simplification-2] removed 969 variables 2%
c [simplification-2] limit increments divided by 2
c [simplification-2] arithmetic increase of conflict limit interval by 5000
c [simplification-2] new irredundant limit 1944296
c [simplification-2] new conflict limit 5745
c [simplification-2] simplification penalty reduced to 2
c R    5.8   40913   188954       981     741   3403   686   7  4.2  88.4   23
c -    6.0   40913   188954      1363     543   3432   743   5  4.0  86.2   23
c R    6.2   40913   188954      2275    1291   3471   855   4  4.5  96.1   23
c 
c  seconds         irredundant          redundant clauses agility   height
c          variables clauses conflicts large binary ternary    glue         MB
c 
c i    6.7   40912   188953      3976    2604   3572  1111   4  4.7  95.8   24
c -    6.8   40912   188953      4470    1597   3577  1133   5  5.0  97.9   23
c R    7.0   40912   188953      5184    2274   3580  1164   6  5.6 104.3   23
c [simplification-3] limit hit at 5745 conflicts
c [simplification-3] simplification penalty of 2
c [ternres-3] limit 4000000 with penalty 0 = 0 + 0
c [ternres-3] all 40912 free variables schedulable
c [ternres-3] 258 ternary resolvents (4 bin, 254 trn)
c [ternres-3] fully completed ternary resolution
c T    7.3   40912   188953      5745    2706   3626  1493   7  5.5 102.9   24
c [gauss-3] limit 1000000 penalty 1 = 1 + 0
c [gauss-3] extracted 551 xors of average arity 3.0
c [gauss-3] connected 1645 occurrences of 1214 variables (average 1.4)
c [gauss-3] limit 1000000 penalty 1 = 1 + 0
c [gauss-3] fully completed
c [gauss-3] exported 0 unary, 0 binary and 0 ternary equations
c G    7.4   40912   188944      5745    2703   3626  1492   7  5.5 102.9   20
c d    7.5   40907   188943      5745    2702   3615  1490   7  5.5 102.9   20
c [basicprobe-3] limit 1000000 penalty 0 = 0 + 0
c [basicprobe-3-0] 2826 probes remain 7% after last round
c [basicprobe-3-0] removed 0 variables, found 727 hbrs
c p    7.5   40907   188943      5745    2702   4342  1454   7  5.5 102.9   23
c [cgrclsr-3] limit 59543 based on 476351 irredundant literals
c [cgrclsr-3] all 40907 free variables schedulable
c [cgrclsr-3] fully completed congruence closure
c [lift-3] limit 125000 with penalty 2 = 2 + 0
c [lift-3] using 40844 probes 100%
c [lift-3] 40833 variables remain 100% (74 retained)
c [cliff-3] limit of 5000000 steps penalty 1 = 1 + 0
c [cliff-3] failed 0, lifted 0
c [unhide-3] limit 1000000 with penalty 0 = 0 + 0
c [unhide-3-5] 0 units, 0 failed, 1230 tauts, 0 hbrs, 3725 literals
c u    8.0   40907   188215      5745    2631   4080  1387   7  5.5 102.9   23
c [transred-5] limit 435940 with penalty 0 = 0 + 0
c t    8.1   40907   188213      5745    2631   4078  1387   7  5.5 102.9   23
c [block-3] scheduling all variables this time
c [block-3] scheduled 40907 variables 100%
c [block-3] limit of 5000000 steps penalty 1 = 1 + 0
c [block-3] fully completed blocked clause elimination
c [block-3] transition to [ all 0 rem 0 ] state
c [block-3] eliminated 0 blocked clauses
c [cce-3] scheduling all variables this time
c [cce-3] limit of 10000000 steps penalty 0 = 0 + 0
c [cce-3] 37461 variables 92% remain to be tried next time
c [cce-3] transition to [ all 1 rem 1 ] state
c [cce-3] eliminated 312 covered clauses
c E    8.6   40907   187901      5745    2631   4561  1375   7  5.5 102.9   20
c [elim-3] scheduling all variables this time
c [elim-3] scheduled 40907 variables 100%
c [elim-3] limit of 5000000 steps penalty 0 = 0 + 0
c [elim-3] 23724 variables 58% remain to be tried next time
c [elim-3] transition to [ all 1 rem 1 ] state
c [elim-3] eliminated 410 = 1% variables out of 40907
c e    9.5   40497   187501      5745    2615   4044  1369   7  5.5 102.9   20
c [phase-3] phase bias: 0 positive 0%, 0 negative 0%
c [simplification-3] removed 415 variables 1%
c [simplification-3] no reduction of limit increments
c [simplification-3] arithmetic increase of conflict limit interval by 10000
c [simplification-3] new irredundant limit 1944296
c [simplification-3] new conflict limit 21067
c [simplification-3] simplification penalty reduced to 1
c -   10.5   40497   187501      8665    2503   4206  1699   4  5.5 101.6   23
c i   10.8   40496   187500      9429    3122   4251  1783   5  5.5 104.0   24
c R   11.3   40496   187500     11659    5287   4258  1838   7  6.8 119.4   24
c i   11.5   40495   187499     12190    5683   4316  1905   6  6.7 117.1   24
c i   11.8   40494   187498     13171    6465   4382  2020   3  6.6 114.5   24
c -   12.0   40494   187498     13830    3555   4406  2070   6  6.6 114.3   24
c i   13.5   40493   187497     18341    7479   4606  2405   6  6.9 113.8   24
c i   14.0   40492   187496     19766    8701   4698  2495   5  6.8 113.6   25
c -   14.2   40492   187496     20114    4513   4704  2510   5  6.9 113.9   24
c [simplification-4] limit hit at 21068 conflicts
c [simplification-4] simplification penalty of 1
c [ternres-4] limit 4000000 with penalty 0 = 0 + 0
c [ternres-4] all 40492 free variables schedulable
c [ternres-4] 287 ternary resolvents (0 bin, 287 trn)
c [ternres-4] fully completed ternary resolution
c T   14.6   40492   187496     21068    5325   4764  2868   5  6.8 113.1   25
c [gauss-4] limit 500000 penalty 2 = 2 + 0
c [gauss-4] extracted 250 xors of average arity 3.0
c [gauss-4] connected 743 occurrences of 500 variables (average 1.5)
c [gauss-4] limit 500000 penalty 2 = 2 + 0
c [gauss-4] fully completed
c [gauss-4] exported 0 unary, 0 binary and 0 ternary equations
c G   14.7   40492   187447     21068    5324   4764  2867   5  6.8 113.1   20
c d   14.8   40485   187446     21068    5324   4747  2863   5  6.8 113.1   20
c [basicprobe-4] limit 833280 penalty 1 = 1 + 0
c [basicprobe-4-0] 2150 probes remain 5% after last round
c [basicprobe-4-0] removed 0 variables, found 1092 hbrs
c 
c  seconds         irredundant          redundant clauses agility   height
c          variables clauses conflicts large binary ternary    glue         MB
c 
c p   14.8   40485   187446     21068    5324   5839  2816   5  6.8 113.1   24
c [cgrclsr-4] limit 118457 based on 473830 irredundant literals
c [cgrclsr-4] all 40485 free variables schedulable
c [cgrclsr-4] fully completed congruence closure
c [cgrclsr-4] removed 2 variables
c C   14.9   40483   187446     21068    5324   5835  2815   5  6.8 113.1   20
c [lift-4] limit 124992 with penalty 3 = 3 + 0
c [lift-4] using 40411 probes 100%
c [lift-4] 40403 variables remain 100% (80 retained)
c [cliff-4] limit of 2500000 steps penalty 2 = 2 + 0
c [cliff-4] failed 0, lifted 0
c [unhide-4] limit 1000000 with penalty 0 = 0 + 0
c [unhide-4-6] 0 units, 1 failed, 894 tauts, 0 hbrs, 3061 literals
c u   15.2   40482   187432     21068    5191   5487  2519   5  6.8 113.1   24
c [transred-7] limit 1666561 with penalty 0 = 0 + 0
c t   15.3   40482   187404     21068    5191   5469  2519   5  6.8 113.1   24
c [block-4] scheduling all variables this time
c [block-4] scheduled 40482 variables 100%
c [block-4] limit of 2500000 steps penalty 2 = 2 + 0
c [block-4] fully completed blocked clause elimination
c [block-4] transition to [ all 0 rem 0 ] state
c [block-4] eliminated 0 blocked clauses
c [cce-4] 37444 variables 92% will be scheduled this time
c [cce-4] limit of 10000000 steps penalty 0 = 0 + 0
c [cce-4] 36730 variables 91% remain to be tried next time
c [cce-4] transition to [ all 0 rem 1 ] state
c [cce-4] eliminated 368 covered clauses
c E   15.8   40482   187026     21068    5191   5837  2518   5  6.8 113.1   20
c [elim-4] 23718 variables 59% will be scheduled this time
c [elim-4] scheduled 23718 variables 59%
c [elim-4] limit of 5000000 steps penalty 0 = 0 + 0
c [elim-4] 15335 variables 38% remain to be tried next time
c [elim-4] transition to [ all 0 rem 1 ] state
c [elim-4] eliminated 174 = 0% variables out of 40482
c e   16.7   40308   187010     21068    4831   5390  2445   5  6.8 113.1   20
c [simplification-4] removed 184 variables 0%
c [simplification-4] no reduction of limit increments
c [simplification-4] arithmetic increase of conflict limit interval by 10000
c [simplification-4] new irredundant limit 1944296
c [simplification-4] new conflict limit 46390
c [simplification-4] simplification penalty reduced to 0
c R   17.7   40308   187010     25894    9555   5407  2525  10  8.2 114.4   26
c i   18.0   40307   187009     26584   10112   5447  2601   5  8.2 113.1   26
c -   18.4   40307   187009     27696    5533   5510  2686   7  8.1 112.2   24
c i   18.6   40306   187008     28225    6032   5521  2703   5  8.2 112.5   24
c i   18.7   40305   187007     28406    6176   5538  2719   6  8.1 112.3   24
c i   18.8   40304   187006     28833    6534   5557  2760   7  8.1 111.7   24
c i   19.0   40303   187005     29362    7002   5574  2800   6  8.1 111.9   25
c i   20.7   40302   187004     33899   11101   5737  3051   6  8.2 110.1   25
c i   20.8   40301   187003     34060   11237   5744  3068   5  8.2 110.0   25
c i   21.3   40300   187002     35213   12271   5784  3141   4  8.2 109.9   26
c -   21.6   40300   187002     36183    6765   5789  3160   7  8.4 110.6   24
c i   22.1   40299   187001     37803    8328   5805  3197   5  8.7 111.5   25
c i   22.6   40298   187000     39019    9423   5857  3255   6  8.6 111.4   25
c i   22.7   40297   186999     39270    9638   5869  3276   7  8.6 111.1   25
c i   23.9   40296   186998     42813   12965   5934  3416   6  8.8 110.9   26
c i   23.9   40295   186997     42827   12972   5939  3417   6  8.8 110.9   26
c i   23.9   40294   186996     42847   12984   5941  3422   6  8.8 110.9   26
c 
c  seconds         irredundant          redundant clauses agility   height
c          variables clauses conflicts large binary ternary    glue         MB
c 
c i   24.5   40293   186995     44091   14078   5991  3511   6  8.8 109.9   26
c i   24.8   40292   186994     44765   14697   6005  3551   6  8.8 109.9   26
c -   24.9   40292   186994     45082    7504   6005  3557   5  8.8 110.4   24
c i   24.9   40291   186993     45083    7504   6005  3557   5  8.8 110.4   24
c i   24.9   40290   186992     45093    7506   6009  3560   5  8.8 110.4   25
c i   25.0   40289   186991     45260    7651   6014  3575   6  8.8 110.2   25
c i   25.0   40288   186990     45290    7674   6017  3578   6  8.8 110.2   25
c i   25.1   40287   186989     45587    7934   6028  3600   5  8.8 110.2   25
c [simplification-5] limit hit at 46390 conflicts
c [simplification-5] no simplification penalty
c [ternres-5] limit 4000000 with penalty 0 = 0 + 0
c [ternres-5] all 40287 free variables schedulable
c [ternres-5] 151 ternary resolvents (0 bin, 151 trn)
c [ternres-5] fully completed ternary resolution
c T   25.5   40287   186989     46390    8676   6051  3784   6  8.7 109.9   25
c [gauss-5] limit 250000 penalty 3 = 3 + 0
c [gauss-5] extracted 135 xors of average arity 3.0
c [gauss-5] connected 400 occurrences of 378 variables (average 1.1)
c [gauss-5] limit 250000 penalty 3 = 3 + 0
c [gauss-5] fully completed
c [gauss-5] exported 0 unary, 0 binary and 0 ternary equations
c G   25.6   40287   186792     46390    8660   6051  3763   6  8.7 109.9   20
c d   25.7   40264   186773     46390    8658   5988  3753   6  8.7 109.9   20
c [basicprobe-5] limit 942360 penalty 2 = 2 + 0
c [basicprobe-5-0] 1489 probes remain 4% after last round
c [basicprobe-5-0] 3 units = 3 failed (100%) + 0 lifted (0%)
c [basicprobe-5-0] removed 3 variables, found 1174 hbrs
c p   25.8   40261   186773     46390    8658   7162  3689   6  8.7 109.9   24
c [cgrclsr-5] limit 236572 based on 473145 irredundant literals
c [cgrclsr-5] all 40261 free variables schedulable
c [cgrclsr-5] fully completed congruence closure
c [cgrclsr-5] removed 2 variables
c C   26.0   40259   186733     46390    8653   7152  3685   6  8.7 109.9   20
c [lift-5] limit 141354 with penalty 4 = 4 + 0
c [lift-5] using 40179 probes 100%
c [lift-5] 40165 variables remain 100% (94 retained)
c [cliff-5] limit of 1250000 steps penalty 3 = 3 + 0
c [cliff-5] failed 0, lifted 0
c [unhide-5] limit 1507776 with penalty 0 = 0 + 0
c [unhide-5-8] 0 units, 1 failed, 1670 tauts, 0 hbrs, 8628 literals
c u   26.3   40258   185906     46390    8485   6930  3314   6  8.7 109.9   24
c [transred-9] limit 2000000 with penalty 0 = 0 + 0
c t   26.5   40258   185892     46390    8485   6908  3314   6  8.7 109.9   24
c [block-5] scheduling all variables this time
c [block-5] scheduled 40258 variables 100%
c [block-5] limit of 1250000 steps penalty 3 = 3 + 0
c [block-5] incomplete blocked clause elimination 2179 not tried 5%
c [block-5] transition to [ all 1 rem 1 ] state
c [block-5] eliminated 0 blocked clauses
c [cce-5] scheduling all variables this time
c [cce-5] limit of 5000000 steps penalty 0 = 0 + 0
c [cce-5] 36518 variables 91% remain to be tried next time
c [cce-5] transition to [ all 1 rem 1 ] state
c [cce-5] eliminated 64 covered clauses
c E   26.9   40255   185817     46390    8481   7274  3289   6  8.7 109.9   20
c [elim-5] scheduling all variables this time
c [elim-5] scheduled 40255 variables 100%
c [elim-5] limit of 5000000 steps penalty 0 = 0 + 0
c [elim-5] 15199 variables 38% remain to be tried next time
c [elim-5] transition to [ all 1 rem 1 ] state
c [elim-5] eliminated 303 = 1% variables out of 40255
c e   27.8   39952   185555     46390    8327   6877  3281   6  8.7 109.9   20
c [simplification-5] removed 335 variables 0%
c [simplification-5] no reduction of limit increments
c [simplification-5] arithmetic increase of conflict limit interval by 10000
c [simplification-5] new irredundant limit 1944296
c [simplification-5] new conflict limit 81712
c 1   30.2   39952   185555     54497   16292   6900  3394   6  9.8 115.1   27
c 
c  seconds         irredundant          redundant clauses agility   height
c          variables clauses conflicts large binary ternary    glue         MB
c 
c blkd: 5 bces, 4200 removed, 2746170 resolutions, 7522942 steps
c blkd: 4200 blocking literals 1%, 0 pure
c cces: 5 cces, 1173 eliminated, 1173 ate 100%, 0 abce 0%
c cces: 23864 probed, 23 lifted, 60 failed
c clff: 5 cliffs, 12 lifted, 2 failed
c clff: 17585 decisions, 28764277 steps
c clls: 1 sat, 0 simp, 0 freeze, 0 melt
c clls: 1857466 add, 0 assume,, 0 deref, 0 failed
c clls: 0 cassume, 0 mosat
c coll: 37 gcs, 0 rescored clauses
c cgrs: 5 count, 714662 esteps, 192733 csteps
c cgrs: 3 eqs, 1 units
c cgrs: 0 matched (0 ands 0%, 0 xors 0%, 0 ites 0%)
c cgrs: 0 simplified (0 ands 0%, 0 xors 0%, 0 ites 0%)
c cgrs: 3473 extracted (3064 ands 88%, 409 xors 12%, 0 ites 0%)
c dcps: 6 decompositions, 57417 equivalent 29%
c decs: 436357 decision, 439 random 0.101%
c decs: 96967 flipped 22.222% (in 283 phases)
c elms: 5 elims, 8113 eliminated 4%
c elms: 8113 small 100%, 0 large 0%
c elms: 55281 tried small, 8113 succeeded 15%, 47168 failed 85%
c elms: 0 subsumed, 0 strengthened, 0 blocked
c elms: 808373 copies, 546612 resolutions, 1630533 ipos
c elms: 3 subchks, 0 strchks
c frcs: 0 computed, 14.7 - 85.3 average min-cut range
c gaus: 5 extractions, 172260 extracted, 2.0 size, 3 max
c gaus: exported 0 units, 1 binary and 0 ternary equations
c gaus: 0 gc, 11500218 steps, 5750109 extr 50%, 2506234 elim 22%
c glue: 9.8 avg, 3.1 scaled avg
c glue: 0 maxredglue=15 (0%)
c lift: 5 phases, 623 probed (208 level1 33%, 415 level2 67%)
c lift: 0 units, 0 equivalences, 2 implications
c hbrs: 25531 hbrs = 25531 trn 100% + 0 lrg 0%, 211 sub 1%
c lrnd: 54101 clauses, 30926 uips 57%, 39.7 length, 9.8 glue
c ints: 2047 luby (353311 steps), 0 inout (0 steps)
c mins: 2145501 learned lits, 16% minimized
c move: moved 5373, 1173 binary 22%, 4200 ternary 78%
c otfs: str 2221 dyn (1983 red, 238 irr) 396 drv 18%, 1825 rst 82%
c otfs: sub 11 dyn (11 red, 0 irr)
c phas: 3 computed, 22222 set, 3141 pos (14%), 19081 neg (86%)
c prbs: 5 basic, 6816 probed, 7 failed, 0 lifted
c prps: 88562223 props, 175 props/dec
c prps: 86% srch, 14% simp, 0% lkhd
c psns: 9552945 searches, 1337672 hits, 14% hit rate
c queu: 331982 new, 118026 del, 120 maximum priority
c queu: 213936 merged, 208111 collected, 24 gcs
c queu: 56322 deprioritized, 33.9 lines on average
c reds: 8 count, 0 reset, 8 acts 100%, 0 exp 0%
c reds: 8 arithmetic 100%, 8 double 100%
c rmbd: 55 removed, 14 red 25%
c rsts: 1974 restarts 96%, 72 skipped 4%
c rsts: 287 kept 14.5% average 32.2%
c simp: 5 count (0 ilim 0%, 0 plim 0%, 5 clim 100%)
c trnr: 5 count, 4 bin, 737 trn, 16812119 steps
c tops: 90144 fixed 46%, 27 iterations
c trds: 10 transitive reductions, 90 removed, 0 failed
c trds: 6080 nodes, 8337 edges, 4304600 steps
c unhd: 5 count, 8 rounds, 7993221 steps
c unhd: 42 non-trivial sccs of average size 2.0
c unhd: 0 units, 0 bin, 0 trn, 0 lrg
c unhd: 7 failed, 7 stamp, 0 lits, 0 bin, 0 trn, 0 lrg
c unhd: 24707 tauts, 5 bin 0%, 1931 trn 8%, 296 lrg 1%
c unhd: 24707 tauts, 22475 stamp 91%, 4155 red 17%
c unhd: 0 hbrs, 0 trn 0%, 0 lrg 0%, 0 red 0%
c unhd: 15746 strd, 0 bin 0%, 31 trn 0%, 15715 lrg 100%, 15738 red 100%
c vars: 39952 remaining 20% and 155674 removed 80% out of 195626
c vars: 90144 fixed 46%, 8113 eliminated 4%, 57417 equivalent 29%
c vsts: 485823317 visits, 88% srch, 12% simp, 0% lkhd
c vsts: 5.6 search visits per propagation 7874.0 per conflict
c wchs: 40100086 pushed, 7156235 enlarged, 58 defrags
c 
c scaledglue  added       reduced       forcing      resolved     conflicts
c 
c all     49316 100     31948 100   1031288 100    220687 100     17048 100
c 
c  0          0   0         0   0         0   0         0   0         0   0 
c  1        319   1       194   1     12591   1      1635   1        95   1 
c  2      13443  27      8816  28    694126  67<   100528  46      7771  46 
c  3      17698  36<    11955  37<   260112  25     71566  32<     5665  33<
c  4       9554  19      5722  18     47076   5     28485  13      2286  13 
c  5       4482   9      2957   9     10417   1     10415   5       704   4 
c  6       2061   4      1240   4      4018   0      4456   2       283   2 
c  7        952   2       605   2      1646   0      1968   1       132   1 
c  8        536   1       287   1       902   0      1116   1        72   0 
c  9        185   0       119   0       283   0       361   0        30   0 
c 10         68   0        38   0        92   0       129   0         9   0 
c 11         15   0        12   0        21   0        24   0         1   0 
c 12          3   0         3   0         4   0         4   0         0   0 
c 13          0   0         0   0         0   0         0   0         0   0 
c 14          0   0         0   0         0   0         0   0         0   0 
c 15          0   0         0   0         0   0         0   0         0   0 
c 
c avg             3.4           3.3           2.4           2.9           2.9
c std             1.4           1.4           0.7           1.2           1.1
c 
c 436357 decisions, 54497 conflicts, 1806.6 conflicts/sec
c 88562223 propagations, 2.9 megaprops/sec
c 30.2 seconds, 45.1 MB
c 
c    3.348  11% analysis
c    0.704   2% block
c    0.412   1% bump
c    0.000   0% card
c    1.736   6% cce
c    1.024   3% cliff
c    0.012   0% cutwidth
c    0.284   1% decide
c    0.000   0% force
c    1.424   5% gc
c    0.596   2% cgrclsr
c    0.516   2% decomp
c    0.376   1% defrag
c    4.744  16% elim
c    1.168   4% gauss
c    0.384   1% lift
c    0.656   2% mincls
c    0.060   0% phase
c    0.288   1% probe
c    0.048   0% reduce
c    0.524   2% restart
c    0.224   1% ternres
c    0.272   1% transred
c    0.768   3% unhide
c ==================================
c    0.016   0% preprocessing     0%
c   12.573  42% inprocessing    100%
c ==================================
c   12.589  42% simplifying
c    0.000   0% lookahead
c   17.569  58% search
c ==================================
c   30.166 100% all
c
s SATISFIABLE
